8315
0 1 0 0 0 1 1 0 0 1 1 0 1 1 0 1 1 0 0 1 
15 6 19 10 12 13 5 16 15 1 5 19 6 13 6 13 12 16 5 15 10 10 10 19 10 10 1 19 19 15 1 1 19 19 15 5 13 13 10 10 10 13 13 13 16 5 5 5 5 15 15 5 10 10 10 10 6 6 13 12 13 5 1 5 15 15 10 19 9 1 15 10 10 10 10 19 19 19 19 19 19 5 16 12 13 13 6 5 12 1 13 13 13 12 6 13 6 12 12 6 

Total Run Time: 125583 ms.
